Route #1: 1 17 44 2 44 43 42 44 50 25 50 17 34 17 4 41 1 
Route #2: 1 31 3 29 23 29 22 37 38 16 38 21 38 6 38 22 31 1 
Route #3: 1 35 47 9 20 15 20 36 8 9 14 28 46 30 31 49 48 22 31 5 1 
Route #4: 1 7 1 
Route #5: 1 18 41 33 41 45 41 10 40 39 12 39 11 40 41 13 27 1 
Cost 633.0
